603
Lattice="10.247 0.0 0.0 0.0 15.084 0.0 0.0 0.0 39.492" Properties=species:S:1:pos:R:3 Atoms.=T Timestep:=T 40000=T pbc="T T T"
H        0.78473600       0.16968900       9.81207100
H        0.10532200      13.91650600       9.85151700
H        4.93533800       2.34107300       9.94676800
H        6.29414700       1.67250400       9.35110400
H        0.53449400       2.91669500       9.82064200
H        0.42749000       4.42947500      10.16935200
H        5.11601000       4.86036400       9.89024800
H        6.55626600       5.40858200       9.63096500
H        0.99251600       7.41183200       9.90675000
H        9.98994800       6.42940600       9.89738100
H        6.47360000       9.28527200       9.65059400
H        5.50081000       8.10060100       9.60366900
H        0.00932500       9.92799800       9.66487700
H        1.28258000      10.76765600       9.42041400
H        6.15602200      13.10123800       9.82569500
H        4.71346700      12.76350400      10.17269800
H        5.99212700       1.68397000      29.10786600
H        5.00820800       0.93400900      29.97861300
H        0.31674500      14.16468300      29.60731400
H        0.24194000       0.64964300      29.73935200
H        5.36779800       4.77674200      29.36562900
H        4.56956200       5.94730200      30.01091200
H        9.82136400       3.58566400      29.72595600
H        0.80390300       4.35753800      29.22746100
H        6.20403700      10.02745300      29.51964600
H        4.79893500       9.48035300      29.84432300
H        0.98420500       6.72923900      29.47394200
H        9.93712200       7.31968800      30.00823500
H        6.40360600      14.20034400      29.73593100
H        4.90654100      13.36742800      29.58498200
H        0.28426600      11.88015500      29.64235100
H        0.28160400      10.34136200      29.36020600
H        0.45352200       8.85581500      23.19259700
H        1.91930100       9.13752100      22.90488000
H        0.45109800       3.91105300      21.75762000
H        1.09131300       3.79730100      23.07765800
H        3.52664300       1.26559600      14.89718400
H        2.07168200       1.35409400      14.50712700
H        3.54810900      13.80400700      27.32457300
H        2.74696700      14.80024700      26.52540400
H        6.17444000       6.32335700      14.33818000
H        7.06715500       6.56112700      15.63631100
H        2.40092300      10.06238100      27.99941800
H        1.08699700      10.63542200      27.28983900
H        1.55555300       9.16105900      16.95969700
H        2.77911000       8.33824300      16.29404700
H        1.68329700      13.03413700      25.33496100
H        2.31066100      13.72322900      24.13066000
H        9.08681500       7.20136000      19.83689700
H        7.81849200       6.28024300      20.10555300
H        6.96974500       3.87426400      20.81269900
H        6.61787800       5.39416100      21.23910800
H       10.19108800       1.75690500      26.87683200
H        8.82734300       2.71965500      26.78109700
H        8.82022200       1.66778900      18.84273600
H        9.83018300       0.47465700      18.35018100
H        8.95663600      13.51699500      28.35727300
H        8.77665300      12.91898600      29.77244700
H        9.88117400       2.12880500      23.62297200
H        9.36968200       1.33079100      24.87239700
H        3.55519000      10.44745000      24.15698400
H        3.50368000      10.77637000      22.61347500
H        3.13132900       2.72956300      29.53129000
H        2.50519400       1.37393900      29.48949200
H        0.48015000      12.59655500      23.34281900
H        9.76979400      11.46277800      23.24430400
H        0.73272400       6.47601800      14.92413400
H        0.97469200       5.18926500      15.78600200
H        8.64646100       9.25159100      29.60771000
H        8.65719500      10.37287600      28.40052600
H        3.51180100      10.66029100      10.89227200
H        3.26685200      10.58036500       9.33308100
H        9.11001900       6.06428000      16.48049900
H        8.15856900       6.69885500      17.67277900
H        6.93093900       2.44273000      15.64038300
H        6.17820500       2.49631200      14.32379600
H        8.74009300       6.99557000      24.19720100
H        9.61560200       7.31108800      25.39850000
H        3.27599300       3.86192000       9.76732400
H        3.48528300       3.91042400      11.32918900
H        0.38713900       0.47642100      21.06646200
H        0.75717500       1.74109800      21.77216800
H        3.37119700      12.11305700      29.82435400
H        3.01884700      13.62726400      29.74107300
H        6.59275700       8.15649900      22.86937700
H        7.43720400       8.68353200      21.74802000
H        4.98723500      12.20079900      18.83346000
H        4.56598700      12.04533500      17.36569100
H        3.59797700       7.48674900      11.79987500
H        4.80668200       6.95203900      12.51239100
H        3.86282300       1.01865700      19.82252600
H        2.64140200       1.43245800      20.94039000
H        0.98012300      12.65418400      15.32151100
H        2.27569500      11.99736600      16.12910400
H        3.33588900       0.35579700      17.69814700
H        4.49289200      14.46579800      17.83541400
H        0.73576500      10.32984100      18.99555000
H        9.99318100       9.65035500      18.07717700
H        7.79790600       4.04283000      29.62175700
H        8.13309900       2.50620800      29.81352600
H        8.29250700       5.46511900      25.80455900
H        7.62098400       4.26731700      25.29605100
H        0.87174100       8.05454700      20.96376700
H        1.17843000       8.14024600      19.54452800
H        5.53192300       0.26234600      14.10196900
H        4.62794800       0.82609200      13.02360300
H        4.55086500       5.40833500      22.05531000
H        5.03997700       6.66641100      22.86432600
H        3.59586700      13.05345100      21.87092900
H        2.75178800      12.17730700      20.94249200
H        0.35056700      12.30944300      19.39798500
H        0.61372900      11.86967200      20.79457700
H        6.83844200      13.61894200      17.57678300
H        7.95414800      14.78018400      17.65865200
H        5.24692900      10.78523700      26.06016900
H        6.69995400      10.88115700      25.41008700
H        3.13886800       8.37768600       9.75234500
H        3.16261100       6.85528900       9.77480600
H        0.92423300       8.61772200      26.81517300
H        9.79340600       8.59677000      27.45858000
H        5.25450900       4.94710800      16.26491100
H        5.22426300       3.44715900      16.83596200
H        2.19443400      13.08419000      12.08613300
H        2.24460400      12.93794400      10.54116300
H        5.84475500       4.49660800      23.63622300
H        5.99961000       2.89749900      23.79395900
H       10.21617100      14.05683200      25.05402400
H        8.67748300      13.59645200      24.62031700
H        7.99838600      10.22773400       9.30451400
H        8.62375400       8.91906400       9.94841100
H        7.17401700       5.87862600      11.79876700
H        7.73348700       5.90944800      13.17685100
H        1.75076300       0.76060700      16.92781000
H        1.46534800      14.40839100      16.98877300
H        2.22909500       1.48637300       9.79300900
H        1.95647100       1.09345500      11.22294100
H        2.66056100      14.93754500      22.42731900
H        4.06043900      15.04000100      23.13361500
H        6.45095700       2.05418100      18.08169900
H        5.27802500       1.45398600      17.31243500
H        8.22312800       0.83855700      22.61198400
H        7.58445400      14.66966100      21.72989500
H        4.81485600      14.49289100      25.66942200
H        6.23130800      14.89492000      26.06433900
H        6.41030300      12.01810700      29.01965800
H        6.76412300      11.31540000      27.62228900
H        3.61183900       3.43729100      20.71036700
H        2.38466600       4.42165100      20.59669400
H        8.57143400      10.60763700      17.85587800
H        8.39560200       9.71450000      16.67611700
H        2.32012000       2.99797400      15.13252100
H        3.10295000       4.15086700      15.96224900
H        9.71844000      11.98648800      13.20457900
H        9.67800600      10.88470700      14.25429400
H        0.85005200       8.14055200      13.18666000
H        0.04549500       6.82252900      12.72109300
H        8.25552800       4.05879900      19.18181000
H        8.78267100       4.68148300      17.93704200
H        2.95116900      10.86608600      26.19339100
H        3.63560500      12.14784500      25.62296600
H        7.01162800      12.57488500      23.24322800
H        6.47891800      13.13103200      24.61527500
H        8.18644700       6.34250400       9.54208000
H        8.24326500       4.81406800       9.58747200
H        8.36433900       1.07996900      11.80407300
H        7.94679200       1.22830900      13.35629100
H        1.38130500      10.06308000      13.36050000
H        1.99413600       9.20160000      14.44185700
H        6.79227800       8.18277000      19.69910700
H        5.48685500       8.06290200      20.14476400
H        8.20734000      14.29713000      26.58993700
H        7.68309600       0.19634600      27.62932100
H        2.83036700       9.79391300      29.83961000
H        3.23056000       8.35997800      29.87623700
H        8.09192600       0.99889800       9.36835500
H        8.06121200       2.54171100       9.33258800
H        4.82026100       3.07152200      25.35267100
H        3.61611100       3.92034500      25.80667400
H        4.28179300       5.51982000      19.67693000
H        4.90036400       5.48472400      18.34070500
H        6.27829500       8.50722800      28.37173400
H        6.58394600       9.27987300      27.19864700
H        7.86571400       9.27398500      14.29333300
H        7.34883600      10.57835400      14.91934500
H        3.64387300       9.79617000      12.97021500
H        5.10396700       9.42957300      12.41775000
H        5.74074500       5.98170500      25.68141700
H        5.93916200       7.34399400      26.59984800
H        3.62040600      10.18425100      16.27425600
H        4.58513200      11.25627500      15.40840400
H        6.23460300       3.38968500      27.70896800
H        4.74077400       3.26193100      27.65281100
H        0.41931300       5.94985700      23.91616500
H        1.68660600       6.70027800      23.48172100
H        7.45710600       9.36814700      11.82788900
H        7.05069600       8.03082200      12.48275200
H        2.39050500       1.66205800      25.95946900
H        2.59873300       1.52805300      27.41125000
H        4.49268000       7.18069700      17.31413800
H        4.96540200       7.49060700      15.91874000
H        4.51651600       8.73142600      23.63027200
H        5.08936600       7.54148500      24.63866300
H        2.84399200       4.29942400      13.69446600
H        3.45543900       5.35213700      12.61947900
H        7.06507900      13.96829600      15.56401800
H        7.43999200      13.97113000      13.99852700
H        5.73551400       0.79338000      24.10374200
H        6.05651100       1.23760400      22.74685400
H        6.87113600       1.65411100      20.81406300
H        5.49660600       2.14371900      20.36773800
H       10.16989900       4.38803200      19.49138900
H        0.76588800       5.61473400      19.97846500
H        4.82850400      11.74046500      20.91920900
H        5.92048400      10.72218200      20.31092900
H        4.24848900       0.56051000      10.74290800
H        3.34784400      14.66343700      11.57019100
H        1.71531700       5.51765200      27.39477700
H        0.23774000       6.07914500      27.80269800
H        8.80490500      12.98014800      17.39744500
H        0.00841100      12.41823400      17.22272300
H        2.33621100       5.66941900      25.27364800
H        3.55640900       6.05410100      26.16813300
H       10.28216800       4.72274300      12.34959300
H        1.54783700       5.01311400      12.22354000
H        8.90409900      14.26664600      12.50089600
H        8.36810100      13.04861100      11.66391000
H        8.20433300       7.38995200      28.41001900
H        8.19924400       6.18178400      29.45129800
H        8.57592500      12.56609100      21.74555600
H        7.16466100      12.35050000      20.95094100
H        9.26594400       9.34724200      25.10279600
H        8.71316500       9.00771800      23.72395500
H        7.95266200      13.86000300       9.30358000
H        7.97487500      12.40327300       9.28604300
H        5.41786400      11.28118300      13.42688900
H        6.10393800      12.47154400      14.41656200
H        9.28819500       5.06553100      14.47529400
H        8.17486700       3.90214700      14.34076800
H        9.32758200      11.94860600      27.47832700
H        9.16080700      11.81339600      25.96873900
H       10.12511100       1.71096000      13.18377300
H        0.56364500       2.93481700      13.84334100
O        0.18866600      14.69947400       9.24656100
O        5.26083600       1.56348900       9.45759500
O        0.11015200       3.73770900       9.54228500
O        5.54875100       5.67278600       9.46193800
O        0.06859300       7.29282400       9.53494400
O        5.52500400       9.04029900       9.41979300
O        0.32181700      10.78100500       9.33976700
O        5.24906100      13.03163900       9.40089400
O        2.89510000       1.61983900       8.11399700
O        8.12494100      14.76183800       8.02561400
O        3.01837500       5.42149500       8.14518000
O        8.15066900       3.52816200       8.19418800
O        3.00990000       9.39034900       8.23850000
O        8.09855400       7.25317000       8.08206600
O        2.94002100      12.99587300       8.05873000
O        8.12254300      11.09335200       8.12409800
O        5.96288100       1.01068600      29.84631100
O        0.82666700      14.96740700      29.82490400
O        5.47268500       5.50960700      29.99331400
O        0.45474300       3.75059700      29.90033800
O        5.75178700       9.31266100      29.96334900
O        0.69120700       7.44655300      30.08061600
O        5.95100100      13.40015000      30.02531800
O        0.72142400      11.01769400      29.88900200
O        3.13909300      14.91586800      31.18820700
O        8.17822100       1.52983400      31.14287100
O        3.09055400       3.51840400      31.04898200
O        8.17183500       5.38646300      31.17733800
O        3.10096900       7.21911600      31.26372000
O        8.19954100       9.23451000      31.20487800
O        3.18365900      11.07346900      31.18486700
O        8.23564600      13.04023200      31.25137400
O        1.19242700       8.49285300      22.67851200
O        0.56742700       3.27049200      22.45946200
O        2.65026800       1.32290400      15.27050400
O        3.36841800      13.98391100      26.38968900
O        6.14758400       6.43756800      15.25503300
O        1.96865000      10.14446600      27.13277000
O        2.05446300       9.07160600      16.15179700
O        1.47235500      13.37991300      24.44725000
O        8.23997600       7.03919100      19.47499800
O        7.29585000       4.79809200      20.91641400
O        9.19305100       1.85557300      26.92275200
O        8.94832500       0.69509000      18.71539500
O        9.42280200      13.02264500      29.05905900
O        9.27236400       1.43075900      23.91860200
O        3.40832200      10.04722800      23.26185100
O        3.16220000       1.84972900      29.03444600
O       10.12404400      12.16543000      22.68124200
O        0.31724000       5.82427600      15.45493300
O        9.06588400       9.53928300      28.76312200
O        3.08478100      11.12723900      10.16428300
O        8.24400300       6.05428900      16.93436200
O        7.01302300       2.69863100      14.71659900
O        9.27378900       6.58066300      24.85519800
O        3.85703900       3.60758700      10.40553500
O        1.11895500       0.81360600      21.52215800
O        3.49810000      12.97654700      29.30546900
O        7.59340100       8.26712000      22.60650500
O        4.83169500      12.73333200      18.01330400
O        3.90341400       7.12635500      12.61453700
O        3.62321600       1.55380200      20.62972200
O        1.44306700      12.58083300      16.17670000
O        4.23745800       0.29588200      18.06596700
O        0.67796200       9.60122800      18.34770900
O        8.11686800       3.29595100      29.14732500
O        8.00093200       4.56535200      26.12462800
O        0.81179700       7.50990100      20.14111100
O        5.09963300       1.05705300      13.79841300
O        5.28209100       5.75483000      22.55959600
O        3.41139500      12.13233200      21.62221700
O        1.01923000      11.85530900      19.91300500
O        7.64022000      14.00439600      17.10602300
O        6.22449900      10.52941600      26.16775000
O        2.75684300       7.61645800      10.23754500
O       -0.00802700       8.45858300      26.60224600
O        4.68697500       4.27954800      16.65402300
O        2.16922500      13.56600200      11.26200300
O        6.20344400       3.75820600      24.17592500
O        9.31274300      13.72423700      25.34755200
O        7.92740500       9.56015900      10.06890000
O        6.97215400       6.26718900      12.69884500
O        1.52835900       0.09755100      17.54777600
O        1.52914500       1.54461000      10.51528900
O        3.34187900      14.44463600      22.88989500
O        6.12065000       1.97608000      17.16874900
O        7.55285300       0.59535800      21.94172700
O        5.66775500      14.70358700      25.27993900
O        6.81631200      11.19710500      28.61183500
O        3.29289900       4.38057500      20.83122200
O        8.29817200       9.65400100      17.68500100
O        2.31939000       3.97038400      15.38810200
O        0.09169000      11.44443500      13.72150400
O       10.26808600       7.56066200      13.32958800
O        8.97200400       3.94076700      18.52296400
O        3.73560700      11.20195500      25.62635000
O        7.17525200      12.53391500      24.19686400
O        8.02331000       5.56412600      10.18522000
O        8.68530700       1.02708500      12.73310700
O        2.02610100       9.29130800      13.48941400
O        6.15189600       8.73041800      20.15349800
O        7.46201100      14.38464000      27.26094900
O        3.30490600       9.09946900      29.33235700
O        7.96274700       1.73568800       9.97430000
O        3.95798200       2.97178800      25.74248300
O        4.74284300       6.10093600      19.03591100
O        6.64030200       8.33720800      27.48295800
O        8.03748200       9.92668800      14.99212900
O        4.41611500      10.17237400      12.46112600
O        5.35345900       6.80346900      26.04726900
O        3.79574900      11.13478800      16.10180400
O        5.47594500       3.28838000      28.24978300
O        1.41503800       5.82801300      23.82045700
O        6.83768200       9.02440500      12.50028800
O        2.01226600       1.23536600      26.65035700
O        4.22813200       7.63077400      16.52983100
O        5.18093700       8.01644100      23.75606100
O        3.06449400       4.45582300      12.72281300
O        6.74492700      13.99339100      14.66245500
O        5.36175000       1.38475300      23.42238700
O        6.40686800       2.21866600      20.09070300
O        0.72963500       4.67613500      19.98915600
O        5.66282400      11.65970400      20.34093100
O        3.79747900       0.40473000      11.57796100
O        1.08380900       5.72170300      28.07069600
O        9.48435800      12.39947600      17.81997700
O        2.82041900       5.44749500      26.11119700
O        0.66313700       5.15470700      11.78334200
O        8.72465500      13.30310000      12.53898500
O        8.71362600       6.66679800      28.78143800
O        7.71402700      12.93713400      21.47262900
O        9.22508700       9.66368400      24.22026800
O        7.83116300      13.12025100       9.96921900
O        5.86331200      11.53329800      14.29920600
O        8.65068400       4.66296800      13.82705200
O        9.36092000      11.28641000      26.77404600
O        0.74551000       2.03658000      13.54200400
O        9.73664600      14.85470700      32.56891000
O        0.96119700       1.68666500      31.71330300
O        4.55380200      14.74780600      34.73498100
O        7.49704100       1.49447800      33.55318000
O        4.57917900       1.65787000      32.72881300
O        6.15617800      14.89095700      32.17990300
O        9.69197100       1.82016200      34.64994000
O        2.40180400      14.94957000      33.51528300
O        0.92278600      14.90468600      36.12346500
O        2.48534100       1.69195000      35.75964600
O        6.07074200      14.94418200      38.17864500
O        8.92457700       1.72189600      37.11565800
O        6.06231800       1.64049800      36.11148600
O        7.66830100      14.86728600      35.64054100
O        0.98477400       1.79227700      38.20904900
O        3.91143300      14.78324900      37.07502100
O        2.38895100      14.93665700       0.35306400
O        3.84397000       1.68044300      39.03059300
O        7.36959100      14.79392200       2.27799800
O        0.19518200       1.77531600       0.98899200
O        7.48072900       1.74386900       0.20637700
O        9.03332500      14.88231800      39.29841700
O        2.27496000       1.73647100       2.25280700
O        5.22364300      14.87427800       1.14767600
O        3.75662700      14.76037300       3.76293700
O        5.16653000       1.62433400       3.21244800
O        8.80984800      14.71294000       5.75782300
O        1.60314700       1.67609300       4.62400100
O        8.96278900       1.58215100       3.85985700
O        0.03836900      14.85091600       2.91378400
O        3.75283500       1.70793500       5.81005200
O        6.59088300      14.88178600       4.62270400
O        5.14431000      14.87273500       7.22058600
O        6.52492400       1.63253700       6.72151200
O        0.03141500       1.63849000       7.45159500
O        1.46993000      14.76987300       6.50910000
O        9.64494200       3.54586700      32.53346300
O        1.00106200       5.42621300      32.08631900
O        4.52351100       3.51834500      34.65759600
O        7.50921100       5.38379200      33.57435800
O        4.52829400       5.41026200      32.67999300
O        6.06371600       3.47481500      31.94380900
O        9.70073800       5.42891500      34.67014200
O        2.34550500       3.43867700      33.42009500
O        0.97292200       3.54594600      36.14752000
O        2.32374500       5.44266200      35.46070900
O        6.05908100       3.66145800      38.14683700
O        9.05461600       5.51754800      37.08068300
O        6.08838500       5.51388600      36.28649100
O        7.46916500       3.58018300      35.59768400
O        0.89514500       5.49707900      38.20151500
O        3.88698600       3.60948500      36.94670600
O        2.38318900       3.62142500       0.25924700
O        3.70699800       5.42707500      38.97296300
O        7.48926000       3.48675700       2.23318700
O        0.10544200       5.44314900       1.09896500
O        7.46810900       5.43571500       0.32330700
O        8.87858600       3.58877900      39.02168300
O        2.17015500       5.28810300       2.32003400
O        5.23414800       3.54120400       1.03405000
O        3.71786300       3.49645900       3.63929500
O        5.18740500       5.39959000       3.03301200
O        8.82994600       3.39462200       5.82512100
O        1.53277100       5.48330100       4.68516600
O        8.87628500       5.35552600       3.81704700
O        0.14378000       3.51384100       3.18678600
O        3.75363900       5.32592500       5.83411600
O        6.62771800       3.54281500       4.61707500
O        5.13065200       3.51906600       7.45641400
O        6.58855900       5.36748800       6.66014700
O       10.14035700       5.41808200       7.26447400
O        1.42519600       3.57933900       6.74225800
O        9.67104700       7.24892900      32.55550300
O        0.95334800       9.11746000      32.06128100
O        4.62815600       7.39323300      34.69797300
O        7.53215400       9.17635500      33.53031100
O        4.53432500       9.24727600      32.64132400
O        6.06419600       7.27921300      31.92363200
O        9.70206100       9.13721000      34.69581200
O        2.35533300       7.34924800      33.60892100
O        1.03706800       7.38909600      36.28714200
O        2.45269200       9.24219700      35.56299400
O        5.99077200       7.45281600      38.20121300
O        8.99047400       9.18171300      36.97652800
O        6.08405700       9.24086400      36.29103100
O        7.46975200       7.32966100      35.67020300
O        0.99334200       8.96376400      38.22012900
O        3.81282800       7.28941100      37.07862700
O        2.40985700       7.21048500       0.44092900
O        3.79505200       9.17530800      39.02796600
O        7.44885900       7.32638200       2.26325700
O        0.14727200       9.12669100       1.06194000
O        7.51005400       9.18449300       0.21490700
O        8.83812200       7.26468600      38.97893300
O        2.29940500       9.19168300       2.35979400
O        5.20015200       7.20242400       1.03383300
O        3.56378500       7.16733000       3.77785000
O        4.99059500       9.12435500       3.10620700
O        8.91792400       7.36766800       5.75417700
O        1.45777000       9.02287300       4.78361300
O        8.87548800       9.10682600       3.70384200
O       10.25845100       7.32327200       3.01827600
O        3.77472400       9.18990600       5.89049900
O        6.58253800       7.38199400       4.63556900
O        5.14443800       7.35925200       7.48605700
O        6.67913900       9.21111700       6.66030700
O       10.14686500       9.18327500       7.34228100
O        1.53461200       7.35194900       7.02475200
O        9.78813000      11.12902500      32.66136900
O        1.03163200      13.08318600      31.94492400
O        4.47171700      11.18791800      34.74283900
O        7.58466700      12.93665600      33.58546100
O        4.58240200      12.91654300      32.58046100
O        6.04749200      11.11712700      31.93138300
O        9.72627800      13.00529100      34.69490900
O        2.38334700      11.06086600      33.54450400
O        0.96602600      11.14799300      36.41021000
O        2.39220500      12.97904200      35.66397900
O        6.10126100      11.08602200      38.26637300
O        8.94497400      12.97502900      37.10820800
O        6.10023700      13.02204600      36.30532600
O        7.45587000      11.12471700      35.56134400
O        0.93648400      13.17095700      38.27508500
O        3.84948400      10.99048400      37.10776800
O        2.36470200      11.09483800       0.22012900
O        3.80869300      12.93672400      38.97720200
O        7.49428200      10.96196900       2.23564400
O        0.22987700      13.04444500       1.09331300
O        7.42721000      12.98819600       0.24823700
O        9.02941400      11.09715900      39.15497800
O        2.35787000      13.00779600       2.21217800
O        5.36466100      11.21723400       1.12088600
O        3.64903900      11.00733500       3.80815900
O        5.22832400      12.93018900       3.16354300
O        8.84290500      11.14454100       5.74672400
O        1.51486000      12.89507500       4.57017600
O        8.95219000      12.94544400       3.60569900
O        0.07711900      11.09905400       3.00623300
O        3.77314100      12.80317900       5.74961100
O        6.71011100      11.18810400       4.63062500
O        5.21515100      11.10329400       7.50803800
O        6.45842900      13.01431400       6.76266500
O        0.15105200      12.94482000       7.31442600
O        1.40875900      11.06183200       6.71997900
Ti       1.43008900      14.85777000      31.93504100
Ti       9.35942100       1.60126200      32.70930900
Ti       6.57716000       1.65054900      32.03020900
Ti       4.18209600      14.95885100      32.77266300
Ti       2.77648900      14.88072600      35.50216100
Ti       0.60897700       1.75817300      36.34479100
Ti       7.97105900       1.72357700      35.45252900
Ti       5.71294500      14.93101300      36.31959300
Ti       4.17135600      14.81678500      38.97756500
Ti       2.05279000       1.65724000       0.33821900
Ti       9.32334400       1.78442000      38.97183000
Ti       7.12434800      14.93869600       0.35493800
Ti       5.61726800      14.75910900       3.08667900
Ti       3.33172800       1.56659600       3.93977200
Ti       0.52530700       1.67202500       2.96259100
Ti       8.49303100      14.84967500       3.80250200
Ti       6.89102100      14.79627100       6.53947300
Ti       4.61889800       1.65032400       7.39998800
Ti       1.72709500       1.78201900       6.72102800
Ti       9.82138600      14.79386700       7.33830500
Ti       1.39893200       3.55598800      31.84092500
Ti       9.25902000       5.41373000      32.71120700
Ti       6.51123100       5.33220800      31.95705800
Ti       4.16238000       3.53481100      32.59690000
Ti       2.82243800       3.58459500      35.39253200
Ti       0.65074500       5.52239400      36.37242600
Ti       8.03838600       5.52902900      35.48370400
Ti       5.67473600       3.58112200      36.28034900
Ti       4.13724800       3.62717700      38.91911100
Ti       1.86887100       5.41083600       0.44227700
Ti       9.22694900       5.43731100      38.96224500
Ti       7.00243800       3.62300600       0.31617200
Ti       5.50585700       3.47057300       3.05876500
Ti       3.36932600       5.38799200       3.90320600
Ti       0.50680800       5.38801800       3.08550900
Ti       8.43300300       3.40599700       3.76767100
Ti       7.02567400       3.46271000       6.54206500
Ti       4.77571800       5.43142000       7.44715400
Ti       1.85707200       5.44504100       6.66461900
Ti       9.78671200       3.59504800       7.33031100
Ti       1.41875200       7.30939700      31.99670100
Ti       9.34500200       9.12076200      32.75723900
Ti       6.49196100       9.17878200      31.85743200
Ti       4.23067300       7.32228700      32.77117100
Ti       2.85847900       7.44716600      35.45232000
Ti       0.50748200       9.21237700      36.35971200
Ti       7.80701900       9.22887400      35.39756700
Ti       5.62055400       7.29374700      36.38015900
Ti       4.08066100       7.27179200      39.02050900
Ti       2.00441200       9.25381900       0.42449700
Ti       9.38200900       9.06748100      38.96161600
Ti       6.97770400       7.34746600       0.28119900
Ti       5.69103800       7.29686600       3.02591700
Ti       3.29273500       9.21017700       3.94362200
Ti       0.42757200       9.16816600       3.01627700
Ti       8.49861700       7.14640000       3.88259700
Ti       6.96662600       7.34093900       6.58102300
Ti       4.69117200       9.28045400       7.47619500
Ti       1.85852300       9.25489100       6.64651100
Ti       9.81279300       7.35085700       7.38376900
Ti       1.46813400      11.03645100      31.97580300
Ti       9.41091000      12.94730700      32.74931400
Ti       6.57061700      12.97340700      32.03172700
Ti       4.26409900      11.16665600      32.77450500
Ti       2.75283100      11.05887300      35.56871600
Ti       0.55104900      13.02390200      36.31077700
Ti       7.96002100      13.02249400      35.50310100
Ti       5.70777100      11.09335400      36.41038100
Ti       4.22159700      11.12215200      38.99387400
Ti       1.96767200      12.96817600       0.42224500
Ti       9.32253500      13.06572700      39.02989300
Ti       7.15455000      11.08968200       0.29848600
Ti       5.64284500      10.96547800       2.97832600
Ti       3.40482500      12.85205800       3.87098700
Ti       0.48577400      13.00987600       3.00684700
Ti       8.55822900      11.01628500       3.74258300
Ti       6.96346100      11.06000300       6.53458600
Ti       4.62711100      13.07306800       7.48278000
Ti       1.87318700      13.00589700       6.50977300
Ti       9.83103300      11.09272800       7.33158400
